(set-logic QF_NRA)
(declare-fun skoC () Real)
(declare-fun skoS () Real)
(declare-fun skoX () Real)
(assert (and (not (<= (* (- 1) skoX) 0)) (and (= (+ (* skoS skoS) (* skoC skoC)) 1) (and (<= skoX 75) (<= (* (- 1) skoX) 0)))))
(set-info :status unsat)
(check-sat)
